assets/logs/11_10x10_clingo/11_10x10_clingo.solution.log

-----------------------------------------
| 27|  9|  1| 90| 28| 33| 32| 41|  0| 57|
-----------------------------------------
| 13| 88| 29| 35| 34| 39| 26| 55| 45|  0|
-----------------------------------------
|  7| 25| 11|  1| 31| 30| 43|  2| 59| 53|
-----------------------------------------
| 86| 15|  5| 36| 37| 24| 46| 51|  1| 47|
-----------------------------------------
| 23| 38| 19| 22|  3| 42|  4| 70| 48| 61|
-----------------------------------------
| 17| 84| 54| 40| 74| 20| 50| 44| 49| 68|
-----------------------------------------
| 79| 21| 76| 18| 52|  6| 72| 66| 63| 10|
-----------------------------------------
| 82|  1| 81| 56|  1| 16| 89|  8| 69| 64|
-----------------------------------------
| 83| 77|  0| 78| 87| 73| 60| 65| 12|  1|
-----------------------------------------
|  0| 80| 85| 75| 58| 91| 14| 71| 62| 67|
-----------------------------------------

| n = 10 | k = 6 | coverage = 96, 96.0%
 Time 299.969
 Name 11_10x10_clingo

