assets/logs/11_10x10_clingo/11_10x10_clingo.log
clingo version 5.4.0
Reading from ...s/logs/11_10x10_clingo/knights_tour.lp ...
Solving...
Answer: 1
occ(1,9,10) occ(1,1,3) occ(1,4,9) occ(1,8,5) occ(1,3,4) occ(1,8,2) occ(2,3,8) occ(3,5,5) coverage(6)
Optimization: -6
Answer: 2
occ(1,9,10) occ(1,1,3) occ(1,4,9) occ(1,8,5) occ(1,3,4) occ(1,8,2) occ(2,3,8) occ(3,5,5) coverage(7) occ(4,1,9) occ(6,3,10)
Optimization: -7
Answer: 3
occ(1,9,10) occ(1,1,3) occ(1,4,9) occ(1,8,5) occ(1,3,4) occ(1,8,2) occ(2,3,8) occ(3,5,5) coverage(25) occ(16,1,9) occ(22,1,6) occ(30,1,4) occ(68,1,1) occ(14,2,7) occ(20,2,8) occ(24,2,4) occ(28,2,6) occ(66,2,3) occ(12,3,9) occ(18,3,10) occ(32,3,5) occ(64,3,1) occ(70,3,2) occ(4,4,6) occ(26,4,5) occ(42,4,7) occ(48,4,10) occ(10,5,10) occ(34,5,6) occ(40,5,9) occ(46,5,8) occ(62,5,2) occ(72,5,1) occ(6,6,7) occ(36,6,8) occ(44,6,6) occ(50,6,9) occ(5,7,6) occ(8,7,9) occ(38,7,10) occ(60,7,1) occ(74,7,2) occ(11,8,10) occ(17,8,9) occ(21,8,7) occ(52,8,8) occ(7,9,7) occ(13,9,8) occ(54,9,6) occ(58,9,2) occ(76,9,1) occ(9,10,9) occ(15,10,10) occ(19,10,8) occ(23,10,6) occ(56,10,4) occ(78,10,3)
Optimization: -25
Answer: 4
occ(1,9,10) occ(1,1,3) occ(1,4,9) occ(1,8,5) occ(1,3,4) occ(1,8,2) occ(2,3,8) occ(3,5,5) coverage(27) occ(16,1,9) occ(22,1,6) occ(30,1,4) occ(68,1,1) occ(14,2,7) occ(20,2,8) occ(24,2,4) occ(28,2,6) occ(66,2,3) occ(12,3,9) occ(18,3,10) occ(32,3,5) occ(64,3,1) occ(70,3,2) occ(4,4,6) occ(26,4,5) occ(42,4,7) occ(48,4,10) occ(10,5,10) occ(34,5,6) occ(40,5,9) occ(46,5,8) occ(62,5,2) occ(72,5,1) occ(6,6,7) occ(36,6,8) occ(44,6,6) occ(50,6,9) occ(5,7,6) occ(8,7,9) occ(38,7,10) occ(60,7,1) occ(74,7,2) occ(11,8,10) occ(17,8,9) occ(21,8,7) occ(52,8,8) occ(7,9,7) occ(13,9,8) occ(25,9,4) occ(54,9,6) occ(58,9,2) occ(76,9,1) occ(9,10,9) occ(15,10,10) occ(19,10,8) occ(23,10,6) occ(56,10,4) occ(78,10,3)
Optimization: -27
Answer: 5
occ(1,9,10) occ(1,1,3) occ(1,4,9) occ(1,8,5) occ(1,3,4) occ(1,8,2) occ(2,3,8) occ(3,5,5) coverage(29) occ(16,1,9) occ(22,1,6) occ(30,1,4) occ(68,1,1) occ(14,2,7) occ(20,2,8) occ(24,2,4) occ(28,2,6) occ(66,2,3) occ(12,3,9) occ(18,3,10) occ(32,3,5) occ(64,3,1) occ(70,3,2) occ(4,4,6) occ(26,4,5) occ(42,4,7) occ(48,4,10) occ(10,5,10) occ(34,5,6) occ(40,5,9) occ(46,5,8) occ(62,5,2) occ(72,5,1) occ(6,6,7) occ(36,6,8) occ(44,6,6) occ(50,6,9) occ(5,7,6) occ(8,7,9) occ(38,7,10) occ(60,7,1) occ(74,7,2) occ(11,8,10) occ(17,8,9) occ(21,8,7) occ(52,8,8) occ(7,9,7) occ(13,9,8) occ(25,9,4) occ(54,9,6) occ(58,9,2) occ(76,9,1) occ(9,10,9) occ(15,10,10) occ(19,10,8) occ(23,10,6) occ(27,10,2) occ(56,10,4) occ(78,10,3)
Optimization: -29
Answer: 6
occ(1,9,10) occ(1,1,3) occ(1,4,9) occ(1,8,5) occ(1,3,4) occ(1,8,2) occ(2,3,8) occ(3,5,5) coverage(31) occ(16,1,9) occ(22,1,6) occ(30,1,4) occ(68,1,1) occ(14,2,7) occ(20,2,8) occ(24,2,4) occ(28,2,6) occ(66,2,3) occ(12,3,9) occ(18,3,10) occ(32,3,5) occ(64,3,1) occ(70,3,2) occ(4,4,6) occ(26,4,5) occ(42,4,7) occ(48,4,10) occ(10,5,10) occ(34,5,6) occ(40,5,9) occ(46,5,8) occ(62,5,2) occ(72,5,1) occ(6,6,7) occ(36,6,8) occ(44,6,6) occ(50,6,9) occ(5,7,6) occ(8,7,9) occ(38,7,10) occ(60,7,1) occ(74,7,2) occ(11,8,10) occ(17,8,9) occ(21,8,7) occ(29,8,1) occ(52,8,8) occ(7,9,7) occ(13,9,8) occ(25,9,4) occ(54,9,6) occ(58,9,2) occ(76,9,1) occ(9,10,9) occ(15,10,10) occ(19,10,8) occ(23,10,6) occ(27,10,2) occ(56,10,4) occ(78,10,3)
Optimization: -31
Answer: 7
occ(1,9,10) occ(1,1,3) occ(1,4,9) occ(1,8,5) occ(1,3,4) occ(1,8,2) occ(2,3,8) occ(3,5,5) coverage(33) occ(16,1,9) occ(22,1,6) occ(30,1,4) occ(68,1,1) occ(14,2,7) occ(20,2,8) occ(24,2,4) occ(28,2,6) occ(66,2,3) occ(12,3,9) occ(18,3,10) occ(32,3,5) occ(64,3,1) occ(70,3,2) occ(4,4,6) occ(26,4,5) occ(42,4,7) occ(48,4,10) occ(10,5,10) occ(34,5,6) occ(40,5,9) occ(46,5,8) occ(62,5,2) occ(72,5,1) occ(6,6,7) occ(31,6,2) occ(36,6,8) occ(44,6,6) occ(50,6,9) occ(5,7,6) occ(8,7,9) occ(38,7,10) occ(60,7,1) occ(74,7,2) occ(11,8,10) occ(17,8,9) occ(21,8,7) occ(29,8,1) occ(52,8,8) occ(7,9,7) occ(13,9,8) occ(25,9,4) occ(54,9,6) occ(58,9,2) occ(76,9,1) occ(9,10,9) occ(15,10,10) occ(19,10,8) occ(23,10,6) occ(27,10,2) occ(56,10,4) occ(78,10,3)
Optimization: -33
Answer: 8
occ(1,9,10) occ(1,1,3) occ(1,4,9) occ(1,8,5) occ(1,3,4) occ(1,8,2) occ(2,3,8) occ(3,5,5) coverage(35) occ(16,1,9) occ(22,1,6) occ(30,1,4) occ(68,1,1) occ(14,2,7) occ(20,2,8) occ(24,2,4) occ(28,2,6) occ(66,2,3) occ(12,3,9) occ(18,3,10) occ(32,3,5) occ(64,3,1) occ(70,3,2) occ(4,4,6) occ(26,4,5) occ(33,4,1) occ(42,4,7) occ(48,4,10) occ(10,5,10) occ(34,5,6) occ(40,5,9) occ(46,5,8) occ(62,5,2) occ(72,5,1) occ(6,6,7) occ(31,6,2) occ(36,6,8) occ(44,6,6) occ(50,6,9) occ(5,7,6) occ(8,7,9) occ(38,7,10) occ(60,7,1) occ(74,7,2) occ(11,8,10) occ(17,8,9) occ(21,8,7) occ(29,8,1) occ(52,8,8) occ(7,9,7) occ(13,9,8) occ(25,9,4) occ(54,9,6) occ(58,9,2) occ(76,9,1) occ(9,10,9) occ(15,10,10) occ(19,10,8) occ(23,10,6) occ(27,10,2) occ(56,10,4) occ(78,10,3)
Optimization: -35
Answer: 9
occ(1,9,10) occ(1,1,3) occ(1,4,9) occ(1,8,5) occ(1,3,4) occ(1,8,2) occ(2,3,8) occ(3,5,5) coverage(37) occ(16,1,9) occ(22,1,6) occ(30,1,4) occ(68,1,1) occ(14,2,7) occ(20,2,8) occ(24,2,4) occ(28,2,6) occ(35,2,2) occ(66,2,3) occ(12,3,9) occ(18,3,10) occ(32,3,5) occ(64,3,1) occ(70,3,2) occ(4,4,6) occ(26,4,5) occ(33,4,1) occ(42,4,7) occ(48,4,10) occ(10,5,10) occ(34,5,6) occ(40,5,9) occ(46,5,8) occ(62,5,2) occ(72,5,1) occ(6,6,7) occ(31,6,2) occ(36,6,8) occ(44,6,6) occ(50,6,9) occ(5,7,6) occ(8,7,9) occ(38,7,10) occ(60,7,1) occ(74,7,2) occ(11,8,10) occ(17,8,9) occ(21,8,7) occ(29,8,1) occ(52,8,8) occ(7,9,7) occ(13,9,8) occ(25,9,4) occ(54,9,6) occ(58,9,2) occ(76,9,1) occ(9,10,9) occ(15,10,10) occ(19,10,8) occ(23,10,6) occ(27,10,2) occ(56,10,4) occ(78,10,3)
Optimization: -37
Answer: 10
occ(1,9,10) occ(1,1,3) occ(1,4,9) occ(1,8,5) occ(1,3,4) occ(1,8,2) occ(2,3,8) occ(3,5,5) coverage(39) occ(16,1,9) occ(22,1,6) occ(30,1,4) occ(68,1,1) occ(14,2,7) occ(20,2,8) occ(24,2,4) occ(28,2,6) occ(66,2,3) occ(12,3,9) occ(18,3,10) occ(32,3,5) occ(64,3,1) occ(70,3,2) occ(4,4,6) occ(26,4,5) occ(42,4,7) occ(48,4,10) occ(10,5,10) occ(34,5,6) occ(40,5,9) occ(46,5,8) occ(62,5,2) occ(72,5,1) occ(6,6,7) occ(31,6,2) occ(36,6,8) occ(44,6,6) occ(50,6,9) occ(5,7,6) occ(8,7,9) occ(38,7,10) occ(60,7,1) occ(74,7,2) occ(11,8,10) occ(17,8,9) occ(21,8,7) occ(29,8,1) occ(33,8,3) occ(52,8,8) occ(7,9,7) occ(13,9,8) occ(25,9,4) occ(35,9,5) occ(54,9,6) occ(58,9,2) occ(76,9,1) occ(9,10,9) occ(15,10,10) occ(19,10,8) occ(23,10,6) occ(27,10,2) occ(37,10,7) occ(56,10,4) occ(78,10,3)
Optimization: -39
Answer: 11
occ(1,9,10) occ(1,1,3) occ(1,4,9) occ(1,8,5) occ(1,3,4) occ(1,8,2) occ(2,3,8) occ(3,5,5) coverage(41) occ(16,1,9) occ(22,1,6) occ(30,1,4) occ(39,1,7) occ(68,1,1) occ(14,2,7) occ(20,2,8) occ(24,2,4) occ(28,2,6) occ(33,2,5) occ(37,2,9) occ(66,2,3) occ(12,3,9) occ(18,3,10) occ(31,3,3) occ(32,3,5) occ(35,3,7) occ(64,3,1) occ(70,3,2) occ(4,4,6) occ(26,4,5) occ(42,4,7) occ(48,4,10) occ(10,5,10) occ(29,5,4) occ(34,5,6) occ(40,5,9) occ(46,5,8) occ(62,5,2) occ(72,5,1) occ(6,6,7) occ(36,6,8) occ(44,6,6) occ(50,6,9) occ(5,7,6) occ(8,7,9) occ(27,7,3) occ(38,7,10) occ(60,7,1) occ(74,7,2) occ(11,8,10) occ(17,8,9) occ(21,8,7) occ(52,8,8) occ(7,9,7) occ(13,9,8) occ(25,9,4) occ(54,9,6) occ(58,9,2) occ(76,9,1) occ(9,10,9) occ(15,10,10) occ(19,10,8) occ(23,10,6) occ(56,10,4) occ(78,10,3)
Optimization: -41
Answer: 12
occ(1,9,10) occ(1,1,3) occ(1,4,9) occ(1,8,5) occ(1,3,4) occ(1,8,2) occ(2,3,8) occ(3,5,5) coverage(43) occ(16,1,9) occ(22,1,6) occ(30,1,4) occ(39,1,7) occ(68,1,1) occ(14,2,7) occ(20,2,8) occ(24,2,4) occ(28,2,6) occ(33,2,5) occ(37,2,9) occ(66,2,3) occ(12,3,9) occ(18,3,10) occ(31,3,3) occ(32,3,5) occ(35,3,7) occ(41,3,6) occ(64,3,1) occ(70,3,2) occ(4,4,6) occ(26,4,5) occ(42,4,7) occ(48,4,10) occ(10,5,10) occ(29,5,4) occ(34,5,6) occ(40,5,9) occ(46,5,8) occ(62,5,2) occ(72,5,1) occ(6,6,7) occ(36,6,8) occ(44,6,6) occ(50,6,9) occ(5,7,6) occ(8,7,9) occ(27,7,3) occ(38,7,10) occ(60,7,1) occ(74,7,2) occ(11,8,10) occ(17,8,9) occ(21,8,7) occ(52,8,8) occ(7,9,7) occ(13,9,8) occ(25,9,4) occ(54,9,6) occ(58,9,2) occ(76,9,1) occ(9,10,9) occ(15,10,10) occ(19,10,8) occ(23,10,6) occ(56,10,4) occ(78,10,3)
Optimization: -43
Answer: 13
occ(1,9,10) occ(1,1,3) occ(1,4,9) occ(1,8,5) occ(1,3,4) occ(1,8,2) occ(2,3,8) occ(3,5,5) coverage(45) occ(16,1,9) occ(22,1,6) occ(30,1,4) occ(39,1,7) occ(43,1,5) occ(68,1,1) occ(14,2,7) occ(20,2,8) occ(24,2,4) occ(28,2,6) occ(33,2,5) occ(37,2,9) occ(66,2,3) occ(12,3,9) occ(18,3,10) occ(31,3,3) occ(32,3,5) occ(35,3,7) occ(41,3,6) occ(64,3,1) occ(70,3,2) occ(4,4,6) occ(26,4,5) occ(42,4,7) occ(48,4,10) occ(10,5,10) occ(29,5,4) occ(34,5,6) occ(40,5,9) occ(46,5,8) occ(62,5,2) occ(72,5,1) occ(6,6,7) occ(36,6,8) occ(44,6,6) occ(50,6,9) occ(5,7,6) occ(8,7,9) occ(27,7,3) occ(38,7,10) occ(60,7,1) occ(74,7,2) occ(11,8,10) occ(17,8,9) occ(21,8,7) occ(52,8,8) occ(7,9,7) occ(13,9,8) occ(25,9,4) occ(54,9,6) occ(58,9,2) occ(76,9,1) occ(9,10,9) occ(15,10,10) occ(19,10,8) occ(23,10,6) occ(56,10,4) occ(78,10,3)
Optimization: -45
Answer: 14
occ(1,9,10) occ(1,1,3) occ(1,4,9) occ(1,8,5) occ(1,3,4) occ(1,8,2) occ(2,3,8) occ(3,5,5) coverage(47) occ(16,1,9) occ(22,1,6) occ(30,1,4) occ(39,1,7) occ(68,1,1) occ(14,2,7) occ(20,2,8) occ(24,2,4) occ(28,2,6) occ(33,2,5) occ(37,2,9) occ(66,2,3) occ(12,3,9) occ(18,3,10) occ(31,3,3) occ(32,3,5) occ(35,3,7) occ(41,3,6) occ(64,3,1) occ(70,3,2) occ(4,4,6) occ(26,4,5) occ(42,4,7) occ(43,4,4) occ(48,4,10) occ(10,5,10) occ(29,5,4) occ(34,5,6) occ(40,5,9) occ(46,5,8) occ(62,5,2) occ(72,5,1) occ(6,6,7) occ(36,6,8) occ(44,6,6) occ(45,6,3) occ(50,6,9) occ(5,7,6) occ(8,7,9) occ(27,7,3) occ(38,7,10) occ(60,7,1) occ(74,7,2) occ(11,8,10) occ(17,8,9) occ(21,8,7) occ(52,8,8) occ(7,9,7) occ(13,9,8) occ(25,9,4) occ(54,9,6) occ(58,9,2) occ(76,9,1) occ(9,10,9) occ(15,10,10) occ(19,10,8) occ(23,10,6) occ(56,10,4) occ(78,10,3)
Optimization: -47
Answer: 15
occ(1,9,10) occ(1,1,3) occ(1,4,9) occ(1,8,5) occ(1,3,4) occ(1,8,2) occ(2,3,8) occ(3,5,5) coverage(49) occ(16,1,9) occ(22,1,6) occ(30,1,4) occ(47,1,7) occ(68,1,1) occ(14,2,7) occ(20,2,8) occ(24,2,4) occ(28,2,6) occ(45,2,5) occ(66,2,3) occ(12,3,9) occ(18,3,10) occ(32,3,5) occ(43,3,3) occ(64,3,1) occ(70,3,2) occ(4,4,6) occ(26,4,5) occ(41,4,1) occ(42,4,7) occ(48,4,10) occ(10,5,10) occ(34,5,6) occ(39,5,3) occ(40,5,9) occ(46,5,8) occ(62,5,2) occ(72,5,1) occ(6,6,7) occ(31,6,2) occ(36,6,8) occ(37,6,1) occ(44,6,6) occ(50,6,9) occ(5,7,6) occ(8,7,9) occ(35,7,3) occ(38,7,10) occ(60,7,1) occ(74,7,2) occ(11,8,10) occ(17,8,9) occ(21,8,7) occ(29,8,3) occ(33,8,1) occ(52,8,8) occ(7,9,7) occ(13,9,8) occ(25,9,4) occ(54,9,6) occ(58,9,2) occ(76,9,1) occ(9,10,9) occ(15,10,10) occ(19,10,8) occ(23,10,6) occ(27,10,2) occ(56,10,4) occ(78,10,3)
Optimization: -49
Answer: 16
occ(1,9,10) occ(1,1,3) occ(1,4,9) occ(1,8,5) occ(1,3,4) occ(1,8,2) occ(2,3,8) occ(3,5,5) coverage(51) occ(16,1,9) occ(22,1,6) occ(30,1,4) occ(68,1,1) occ(14,2,7) occ(20,2,8) occ(24,2,4) occ(28,2,6) occ(66,2,3) occ(12,3,9) occ(18,3,10) occ(32,3,5) occ(64,3,1) occ(70,3,2) occ(4,4,6) occ(26,4,5) occ(31,4,2) occ(42,4,7) occ(48,4,10) occ(10,5,10) occ(34,5,6) occ(40,5,9) occ(46,5,8) occ(62,5,2) occ(72,5,1) occ(6,6,7) occ(29,6,3) occ(33,6,1) occ(36,6,8) occ(44,6,6) occ(50,6,9) occ(5,7,6) occ(8,7,9) occ(27,7,5) occ(35,7,3) occ(38,7,10) occ(49,7,8) occ(60,7,1) occ(74,7,2) occ(11,8,10) occ(17,8,9) occ(21,8,7) occ(37,8,1) occ(41,8,3) occ(52,8,8) occ(7,9,7) occ(13,9,8) occ(25,9,4) occ(43,9,5) occ(47,9,9) occ(54,9,6) occ(58,9,2) occ(76,9,1) occ(9,10,9) occ(15,10,10) occ(19,10,8) occ(23,10,6) occ(39,10,2) occ(45,10,7) occ(56,10,4) occ(78,10,3)
Optimization: -51
Answer: 17
occ(1,9,10) occ(1,1,3) occ(1,4,9) occ(1,8,5) occ(1,3,4) occ(1,8,2) occ(2,3,8) occ(3,5,5) coverage(53) occ(16,1,9) occ(22,1,6) occ(30,1,4) occ(68,1,1) occ(14,2,7) occ(20,2,8) occ(24,2,4) occ(28,2,6) occ(66,2,3) occ(12,3,9) occ(18,3,10) occ(32,3,5) occ(64,3,1) occ(70,3,2) occ(4,4,6) occ(26,4,5) occ(31,4,2) occ(42,4,7) occ(48,4,10) occ(10,5,10) occ(34,5,6) occ(40,5,9) occ(46,5,8) occ(62,5,2) occ(72,5,1) occ(6,6,7) occ(29,6,3) occ(33,6,1) occ(36,6,8) occ(44,6,6) occ(50,6,9) occ(51,6,10) occ(5,7,6) occ(8,7,9) occ(27,7,5) occ(35,7,3) occ(38,7,10) occ(49,7,8) occ(60,7,1) occ(74,7,2) occ(11,8,10) occ(17,8,9) occ(21,8,7) occ(37,8,1) occ(41,8,3) occ(52,8,8) occ(7,9,7) occ(13,9,8) occ(25,9,4) occ(43,9,5) occ(47,9,9) occ(54,9,6) occ(58,9,2) occ(76,9,1) occ(9,10,9) occ(15,10,10) occ(19,10,8) occ(23,10,6) occ(39,10,2) occ(45,10,7) occ(56,10,4) occ(78,10,3)
Optimization: -53
Answer: 18
occ(1,9,10) occ(1,1,3) occ(1,4,9) occ(1,8,5) occ(1,3,4) occ(1,8,2) occ(2,3,8) occ(3,5,5) coverage(55) occ(16,1,9) occ(22,1,6) occ(30,1,4) occ(68,1,1) occ(14,2,7) occ(20,2,8) occ(24,2,4) occ(28,2,6) occ(66,2,3) occ(12,3,9) occ(18,3,10) occ(32,3,5) occ(64,3,1) occ(70,3,2) occ(4,4,6) occ(26,4,5) occ(31,4,2) occ(42,4,7) occ(48,4,10) occ(53,4,1) occ(10,5,10) occ(34,5,6) occ(40,5,9) occ(46,5,8) occ(62,5,2) occ(72,5,1) occ(6,6,7) occ(29,6,3) occ(33,6,1) occ(36,6,8) occ(44,6,6) occ(50,6,9) occ(51,6,2) occ(5,7,6) occ(8,7,9) occ(27,7,5) occ(35,7,3) occ(38,7,10) occ(49,7,4) occ(60,7,1) occ(74,7,2) occ(11,8,10) occ(17,8,9) occ(21,8,7) occ(37,8,1) occ(41,8,3) occ(47,8,6) occ(52,8,8) occ(7,9,7) occ(13,9,8) occ(25,9,4) occ(43,9,5) occ(54,9,6) occ(58,9,2) occ(76,9,1) occ(9,10,9) occ(15,10,10) occ(19,10,8) occ(23,10,6) occ(39,10,2) occ(45,10,7) occ(56,10,4) occ(78,10,3)
Optimization: -55
Answer: 19
occ(1,9,10) occ(1,1,3) occ(1,4,9) occ(1,8,5) occ(1,3,4) occ(1,8,2) occ(2,3,8) occ(3,5,5) coverage(57) occ(16,1,9) occ(22,1,6) occ(30,1,4) occ(55,1,7) occ(68,1,1) occ(14,2,7) occ(20,2,8) occ(24,2,4) occ(28,2,6) occ(49,2,5) occ(53,2,9) occ(66,2,3) occ(12,3,9) occ(18,3,10) occ(32,3,5) occ(47,3,3) occ(51,3,7) occ(64,3,1) occ(70,3,2) occ(4,4,6) occ(26,4,5) occ(31,4,2) occ(42,4,7) occ(45,4,1) occ(48,4,10) occ(10,5,10) occ(34,5,6) occ(40,5,9) occ(46,5,8) occ(62,5,2) occ(72,5,1) occ(6,6,7) occ(29,6,3) occ(33,6,1) occ(36,6,8) occ(43,6,2) occ(44,6,6) occ(50,6,9) occ(5,7,6) occ(8,7,9) occ(27,7,5) occ(35,7,3) occ(38,7,10) occ(60,7,1) occ(74,7,2) occ(11,8,10) occ(17,8,9) occ(21,8,7) occ(37,8,1) occ(41,8,3) occ(52,8,8) occ(7,9,7) occ(13,9,8) occ(25,9,4) occ(54,9,6) occ(58,9,2) occ(76,9,1) occ(9,10,9) occ(15,10,10) occ(19,10,8) occ(23,10,6) occ(39,10,2) occ(56,10,4) occ(78,10,3)
Optimization: -57
Answer: 20
occ(1,9,10) occ(1,1,3) occ(1,4,9) occ(1,8,5) occ(1,3,4) occ(1,8,2) occ(2,3,8) occ(3,5,5) coverage(59) occ(16,1,9) occ(22,1,6) occ(30,1,4) occ(55,1,7) occ(68,1,1) occ(14,2,7) occ(20,2,8) occ(24,2,4) occ(28,2,6) occ(49,2,5) occ(53,2,9) occ(66,2,3) occ(12,3,9) occ(18,3,10) occ(32,3,5) occ(47,3,3) occ(51,3,7) occ(57,3,6) occ(64,3,1) occ(70,3,2) occ(4,4,6) occ(26,4,5) occ(31,4,2) occ(42,4,7) occ(45,4,1) occ(48,4,10) occ(10,5,10) occ(34,5,6) occ(40,5,9) occ(46,5,8) occ(62,5,2) occ(72,5,1) occ(6,6,7) occ(29,6,3) occ(33,6,1) occ(36,6,8) occ(43,6,2) occ(44,6,6) occ(50,6,9) occ(5,7,6) occ(8,7,9) occ(27,7,5) occ(35,7,3) occ(38,7,10) occ(60,7,1) occ(74,7,2) occ(11,8,10) occ(17,8,9) occ(21,8,7) occ(37,8,1) occ(41,8,3) occ(52,8,8) occ(7,9,7) occ(13,9,8) occ(25,9,4) occ(54,9,6) occ(58,9,2) occ(76,9,1) occ(9,10,9) occ(15,10,10) occ(19,10,8) occ(23,10,6) occ(39,10,2) occ(56,10,4) occ(78,10,3)
Optimization: -59
Answer: 21
occ(1,9,10) occ(1,1,3) occ(1,4,9) occ(1,8,5) occ(1,3,4) occ(1,8,2) occ(2,3,8) occ(3,5,5) coverage(61) occ(16,1,9) occ(22,1,6) occ(30,1,4) occ(55,1,7) occ(59,1,5) occ(68,1,1) occ(14,2,7) occ(20,2,8) occ(24,2,4) occ(28,2,6) occ(49,2,5) occ(53,2,9) occ(66,2,3) occ(12,3,9) occ(18,3,10) occ(32,3,5) occ(47,3,3) occ(51,3,7) occ(57,3,6) occ(64,3,1) occ(70,3,2) occ(4,4,6) occ(26,4,5) occ(31,4,2) occ(42,4,7) occ(45,4,1) occ(48,4,10) occ(10,5,10) occ(34,5,6) occ(40,5,9) occ(46,5,8) occ(62,5,2) occ(72,5,1) occ(6,6,7) occ(29,6,3) occ(33,6,1) occ(36,6,8) occ(43,6,2) occ(44,6,6) occ(50,6,9) occ(5,7,6) occ(8,7,9) occ(27,7,5) occ(35,7,3) occ(38,7,10) occ(60,7,1) occ(74,7,2) occ(11,8,10) occ(17,8,9) occ(21,8,7) occ(37,8,1) occ(41,8,3) occ(52,8,8) occ(7,9,7) occ(13,9,8) occ(25,9,4) occ(54,9,6) occ(58,9,2) occ(76,9,1) occ(9,10,9) occ(15,10,10) occ(19,10,8) occ(23,10,6) occ(39,10,2) occ(56,10,4) occ(78,10,3)
Optimization: -61
Answer: 22
occ(1,9,10) occ(1,1,3) occ(1,4,9) occ(1,8,5) occ(1,3,4) occ(1,8,2) occ(2,3,8) occ(3,5,5) coverage(63) occ(16,1,9) occ(22,1,6) occ(30,1,4) occ(55,1,7) occ(68,1,1) occ(14,2,7) occ(20,2,8) occ(24,2,4) occ(28,2,6) occ(49,2,5) occ(53,2,9) occ(66,2,3) occ(12,3,9) occ(18,3,10) occ(32,3,5) occ(47,3,3) occ(51,3,7) occ(57,3,6) occ(64,3,1) occ(70,3,2) occ(4,4,6) occ(26,4,5) occ(42,4,7) occ(45,4,1) occ(48,4,10) occ(59,4,4) occ(10,5,10) occ(31,5,3) occ(34,5,6) occ(40,5,9) occ(46,5,8) occ(62,5,2) occ(72,5,1) occ(6,6,7) occ(29,6,5) occ(33,6,1) occ(36,6,8) occ(43,6,2) occ(44,6,6) occ(50,6,9) occ(61,6,3) occ(5,7,6) occ(8,7,9) occ(35,7,3) occ(38,7,10) occ(60,7,1) occ(74,7,2) occ(11,8,10) occ(17,8,9) occ(21,8,7) occ(27,8,6) occ(37,8,1) occ(41,8,3) occ(52,8,8) occ(7,9,7) occ(13,9,8) occ(25,9,4) occ(54,9,6) occ(58,9,2) occ(76,9,1) occ(9,10,9) occ(15,10,10) occ(19,10,8) occ(23,10,6) occ(39,10,2) occ(56,10,4) occ(78,10,3)
Optimization: -63
Answer: 23
occ(1,9,10) occ(1,1,3) occ(1,4,9) occ(1,8,5) occ(1,3,4) occ(1,8,2) occ(2,3,8) occ(3,5,5) coverage(65) occ(16,1,9) occ(22,1,6) occ(30,1,4) occ(55,1,7) occ(68,1,1) occ(14,2,7) occ(20,2,8) occ(24,2,4) occ(28,2,6) occ(53,2,9) occ(57,2,5) occ(61,2,1) occ(66,2,3) occ(12,3,9) occ(18,3,10) occ(32,3,5) occ(49,3,6) occ(59,3,3) occ(64,3,1) occ(70,3,2) occ(4,4,6) occ(26,4,5) occ(42,4,7) occ(47,4,4) occ(48,4,10) occ(51,4,8) occ(63,4,2) occ(10,5,10) occ(31,5,3) occ(34,5,6) occ(40,5,9) occ(46,5,8) occ(62,5,2) occ(72,5,1) occ(6,6,7) occ(29,6,5) occ(33,6,1) occ(36,6,8) occ(44,6,6) occ(45,6,3) occ(50,6,9) occ(5,7,6) occ(8,7,9) occ(35,7,3) occ(38,7,10) occ(43,7,5) occ(60,7,1) occ(74,7,2) occ(11,8,10) occ(17,8,9) occ(21,8,7) occ(27,8,6) occ(37,8,1) occ(41,8,3) occ(52,8,8) occ(7,9,7) occ(13,9,8) occ(25,9,4) occ(54,9,6) occ(58,9,2) occ(76,9,1) occ(9,10,9) occ(15,10,10) occ(19,10,8) occ(23,10,6) occ(39,10,2) occ(56,10,4) occ(78,10,3)
Optimization: -65
Answer: 24
occ(1,9,10) occ(1,1,3) occ(1,4,9) occ(1,8,5) occ(1,3,4) occ(1,8,2) occ(2,3,8) occ(3,5,5) coverage(67) occ(16,1,9) occ(22,1,6) occ(30,1,4) occ(51,1,7) occ(68,1,1) occ(14,2,7) occ(20,2,8) occ(24,2,4) occ(28,2,6) occ(49,2,5) occ(53,2,9) occ(66,2,3) occ(12,3,9) occ(18,3,10) occ(32,3,5) occ(47,3,3) occ(57,3,6) occ(64,3,1) occ(70,3,2) occ(4,4,6) occ(26,4,5) occ(42,4,7) occ(45,4,1) occ(48,4,10) occ(55,4,8) occ(10,5,10) occ(31,5,3) occ(34,5,6) occ(40,5,9) occ(46,5,8) occ(59,5,7) occ(62,5,2) occ(72,5,1) occ(6,6,7) occ(29,6,5) occ(33,6,1) occ(36,6,8) occ(43,6,2) occ(44,6,6) occ(50,6,9) occ(5,7,6) occ(8,7,9) occ(35,7,3) occ(38,7,10) occ(60,7,1) occ(61,7,8) occ(74,7,2) occ(11,8,10) occ(17,8,9) occ(21,8,7) occ(27,8,6) occ(37,8,1) occ(41,8,3) occ(52,8,8) occ(7,9,7) occ(13,9,8) occ(25,9,4) occ(54,9,6) occ(58,9,2) occ(63,9,9) occ(76,9,1) occ(9,10,9) occ(15,10,10) occ(19,10,8) occ(23,10,6) occ(39,10,2) occ(56,10,4) occ(65,10,7) occ(78,10,3)
Optimization: -67
Answer: 25
occ(1,9,10) occ(1,1,3) occ(1,4,9) occ(1,8,5) occ(1,3,4) occ(1,8,2) occ(2,3,8) occ(3,5,5) coverage(69) occ(16,1,9) occ(22,1,6) occ(30,1,4) occ(51,1,7) occ(68,1,1) occ(14,2,7) occ(20,2,8) occ(24,2,4) occ(28,2,6) occ(49,2,5) occ(53,2,9) occ(66,2,3) occ(12,3,9) occ(18,3,10) occ(32,3,5) occ(47,3,3) occ(57,3,6) occ(64,3,1) occ(70,3,2) occ(4,4,6) occ(26,4,5) occ(31,4,2) occ(42,4,7) occ(45,4,1) occ(48,4,10) occ(55,4,8) occ(10,5,10) occ(34,5,6) occ(40,5,9) occ(46,5,8) occ(59,5,7) occ(62,5,2) occ(72,5,1) occ(6,6,7) occ(29,6,3) occ(33,6,1) occ(36,6,8) occ(43,6,2) occ(44,6,6) occ(50,6,9) occ(5,7,6) occ(8,7,9) occ(27,7,5) occ(35,7,3) occ(38,7,10) occ(60,7,1) occ(61,7,8) occ(74,7,2) occ(11,8,10) occ(17,8,9) occ(21,8,7) occ(37,8,1) occ(41,8,3) occ(52,8,8) occ(7,9,7) occ(13,9,8) occ(25,9,4) occ(54,9,6) occ(58,9,2) occ(63,9,9) occ(67,9,5) occ(76,9,1) occ(9,10,9) occ(15,10,10) occ(19,10,8) occ(23,10,6) occ(39,10,2) occ(56,10,4) occ(65,10,7) occ(78,10,3)
Optimization: -69
Answer: 26
occ(1,9,10) occ(1,1,3) occ(1,4,9) occ(1,8,5) occ(1,3,4) occ(1,8,2) occ(2,3,8) occ(3,5,5) coverage(71) occ(16,1,9) occ(22,1,6) occ(30,1,4) occ(51,1,7) occ(68,1,1) occ(14,2,7) occ(20,2,8) occ(24,2,4) occ(28,2,6) occ(49,2,5) occ(53,2,9) occ(66,2,3) occ(12,3,9) occ(18,3,10) occ(32,3,5) occ(47,3,3) occ(57,3,6) occ(64,3,1) occ(70,3,2) occ(4,4,6) occ(26,4,5) occ(42,4,7) occ(45,4,1) occ(48,4,10) occ(55,4,8) occ(10,5,10) occ(31,5,3) occ(34,5,6) occ(40,5,9) occ(46,5,8) occ(59,5,7) occ(62,5,2) occ(72,5,1) occ(6,6,7) occ(29,6,5) occ(33,6,1) occ(36,6,8) occ(43,6,2) occ(44,6,6) occ(50,6,9) occ(5,7,6) occ(8,7,9) occ(35,7,3) occ(38,7,10) occ(60,7,1) occ(61,7,8) occ(69,7,4) occ(74,7,2) occ(11,8,10) occ(17,8,9) occ(21,8,7) occ(27,8,6) occ(37,8,1) occ(41,8,3) occ(52,8,8) occ(7,9,7) occ(13,9,8) occ(25,9,4) occ(54,9,6) occ(58,9,2) occ(63,9,9) occ(67,9,5) occ(76,9,1) occ(9,10,9) occ(15,10,10) occ(19,10,8) occ(23,10,6) occ(39,10,2) occ(56,10,4) occ(65,10,7) occ(78,10,3)
Optimization: -71
Answer: 27
occ(1,9,10) occ(1,1,3) occ(1,4,9) occ(1,8,5) occ(1,3,4) occ(1,8,2) occ(2,3,8) occ(3,5,5) coverage(73) occ(16,1,9) occ(22,1,6) occ(30,1,4) occ(51,1,7) occ(68,1,1) occ(14,2,7) occ(20,2,8) occ(24,2,4) occ(28,2,6) occ(49,2,5) occ(53,2,9) occ(66,2,3) occ(12,3,9) occ(18,3,10) occ(32,3,5) occ(47,3,3) occ(57,3,6) occ(64,3,1) occ(70,3,2) occ(4,4,6) occ(26,4,5) occ(42,4,7) occ(45,4,1) occ(48,4,10) occ(55,4,8) occ(10,5,10) occ(31,5,3) occ(34,5,6) occ(40,5,9) occ(46,5,8) occ(59,5,7) occ(62,5,2) occ(72,5,1) occ(6,6,7) occ(29,6,5) occ(33,6,1) occ(36,6,8) occ(43,6,2) occ(44,6,6) occ(50,6,9) occ(5,7,6) occ(8,7,9) occ(35,7,3) occ(38,7,10) occ(60,7,1) occ(61,7,8) occ(69,7,4) occ(74,7,2) occ(11,8,10) occ(17,8,9) occ(21,8,7) occ(27,8,6) occ(37,8,1) occ(41,8,3) occ(52,8,8) occ(7,9,7) occ(13,9,8) occ(25,9,4) occ(54,9,6) occ(58,9,2) occ(63,9,9) occ(67,9,5) occ(71,9,3) occ(76,9,1) occ(9,10,9) occ(15,10,10) occ(19,10,8) occ(23,10,6) occ(39,10,2) occ(56,10,4) occ(65,10,7) occ(78,10,3)
Optimization: -73
Answer: 28
occ(1,9,10) occ(1,1,3) occ(1,4,9) occ(1,8,5) occ(1,3,4) occ(1,8,2) occ(2,3,8) occ(3,5,5) coverage(75) occ(16,1,9) occ(22,1,6) occ(30,1,4) occ(51,1,7) occ(68,1,1) occ(14,2,7) occ(20,2,8) occ(24,2,4) occ(28,2,6) occ(49,2,5) occ(53,2,9) occ(66,2,3) occ(12,3,9) occ(18,3,10) occ(32,3,5) occ(47,3,3) occ(57,3,6) occ(64,3,1) occ(70,3,2) occ(4,4,6) occ(26,4,5) occ(42,4,7) occ(45,4,1) occ(48,4,10) occ(55,4,8) occ(10,5,10) occ(31,5,3) occ(34,5,6) occ(40,5,9) occ(46,5,8) occ(59,5,7) occ(62,5,2) occ(72,5,1) occ(6,6,7) occ(29,6,5) occ(33,6,1) occ(36,6,8) occ(43,6,2) occ(44,6,6) occ(50,6,9) occ(5,7,6) occ(8,7,9) occ(35,7,3) occ(38,7,10) occ(60,7,1) occ(61,7,8) occ(69,7,4) occ(74,7,2) occ(11,8,10) occ(17,8,9) occ(21,8,7) occ(27,8,6) occ(37,8,1) occ(41,8,3) occ(52,8,8) occ(7,9,7) occ(13,9,8) occ(25,9,4) occ(54,9,6) occ(58,9,2) occ(63,9,9) occ(67,9,5) occ(71,9,3) occ(76,9,1) occ(9,10,9) occ(15,10,10) occ(19,10,8) occ(23,10,6) occ(39,10,2) occ(56,10,4) occ(65,10,7) occ(73,10,1) occ(78,10,3)
Optimization: -75
Answer: 29
occ(1,9,10) occ(1,1,3) occ(1,4,9) occ(1,8,5) occ(1,3,4) occ(1,8,2) occ(2,3,8) occ(3,5,5) coverage(77) occ(16,1,9) occ(22,1,6) occ(30,1,4) occ(51,1,7) occ(68,1,1) occ(14,2,7) occ(20,2,8) occ(24,2,4) occ(28,2,6) occ(49,2,5) occ(53,2,9) occ(66,2,3) occ(12,3,9) occ(18,3,10) occ(32,3,5) occ(47,3,3) occ(57,3,6) occ(64,3,1) occ(70,3,2) occ(4,4,6) occ(26,4,5) occ(42,4,7) occ(45,4,1) occ(48,4,10) occ(55,4,8) occ(10,5,10) occ(31,5,3) occ(34,5,6) occ(40,5,9) occ(46,5,8) occ(59,5,7) occ(62,5,2) occ(72,5,1) occ(6,6,7) occ(29,6,5) occ(33,6,1) occ(36,6,8) occ(43,6,2) occ(44,6,6) occ(50,6,9) occ(5,7,6) occ(8,7,9) occ(35,7,3) occ(38,7,10) occ(60,7,1) occ(61,7,8) occ(69,7,4) occ(74,7,2) occ(11,8,10) occ(17,8,9) occ(21,8,7) occ(27,8,6) occ(37,8,1) occ(41,8,3) occ(52,8,8) occ(75,8,4) occ(7,9,7) occ(13,9,8) occ(25,9,4) occ(54,9,6) occ(58,9,2) occ(63,9,9) occ(67,9,5) occ(71,9,3) occ(76,9,1) occ(9,10,9) occ(15,10,10) occ(19,10,8) occ(23,10,6) occ(39,10,2) occ(56,10,4) occ(65,10,7) occ(73,10,5) occ(78,10,3)
Optimization: -77
Answer: 30
occ(1,9,10) occ(1,1,3) occ(1,4,9) occ(1,8,5) occ(1,3,4) occ(1,8,2) occ(2,3,8) occ(3,5,5) coverage(79) occ(16,1,9) occ(22,1,6) occ(30,1,4) occ(51,1,7) occ(68,1,1) occ(14,2,7) occ(20,2,8) occ(24,2,4) occ(28,2,6) occ(49,2,5) occ(53,2,9) occ(66,2,3) occ(12,3,9) occ(18,3,10) occ(32,3,5) occ(47,3,3) occ(57,3,6) occ(64,3,1) occ(70,3,2) occ(4,4,6) occ(26,4,5) occ(42,4,7) occ(45,4,1) occ(48,4,10) occ(55,4,8) occ(10,5,10) occ(31,5,3) occ(34,5,6) occ(40,5,9) occ(46,5,8) occ(59,5,7) occ(62,5,2) occ(72,5,1) occ(6,6,7) occ(29,6,5) occ(33,6,1) occ(36,6,8) occ(43,6,2) occ(44,6,6) occ(50,6,9) occ(77,6,3) occ(5,7,6) occ(8,7,9) occ(35,7,3) occ(38,7,10) occ(60,7,1) occ(61,7,8) occ(69,7,4) occ(74,7,2) occ(11,8,10) occ(17,8,9) occ(21,8,7) occ(27,8,6) occ(37,8,1) occ(41,8,3) occ(52,8,8) occ(75,8,4) occ(7,9,7) occ(13,9,8) occ(25,9,4) occ(54,9,6) occ(58,9,2) occ(63,9,9) occ(67,9,5) occ(71,9,3) occ(76,9,1) occ(9,10,9) occ(15,10,10) occ(19,10,8) occ(23,10,6) occ(39,10,2) occ(56,10,4) occ(65,10,7) occ(73,10,5) occ(78,10,3)
Optimization: -79
Answer: 31
occ(1,9,10) occ(1,1,3) occ(1,4,9) occ(1,8,5) occ(1,3,4) occ(1,8,2) occ(2,3,8) occ(3,5,5) coverage(80) occ(16,1,9) occ(22,1,6) occ(30,1,4) occ(51,1,7) occ(68,1,1) occ(14,2,7) occ(20,2,8) occ(24,2,4) occ(28,2,6) occ(49,2,5) occ(53,2,9) occ(66,2,3) occ(85,2,1) occ(12,3,9) occ(18,3,10) occ(32,3,5) occ(47,3,3) occ(57,3,6) occ(64,3,1) occ(70,3,2) occ(4,4,6) occ(26,4,5) occ(42,4,7) occ(45,4,1) occ(48,4,10) occ(55,4,8) occ(83,4,2) occ(10,5,10) occ(31,5,3) occ(34,5,6) occ(40,5,9) occ(46,5,8) occ(59,5,7) occ(62,5,2) occ(72,5,1) occ(81,5,4) occ(6,6,7) occ(29,6,5) occ(33,6,1) occ(36,6,8) occ(43,6,2) occ(44,6,6) occ(50,6,9) occ(77,6,3) occ(5,7,6) occ(8,7,9) occ(35,7,3) occ(38,7,10) occ(60,7,1) occ(61,7,8) occ(69,7,4) occ(74,7,2) occ(79,7,5) occ(11,8,10) occ(17,8,9) occ(21,8,7) occ(27,8,6) occ(37,8,1) occ(41,8,3) occ(52,8,8) occ(75,8,4) occ(7,9,7) occ(13,9,8) occ(25,9,4) occ(54,9,6) occ(58,9,2) occ(63,9,9) occ(67,9,5) occ(71,9,3) occ(76,9,1) occ(9,10,9) occ(15,10,10) occ(19,10,8) occ(23,10,6) occ(39,10,2) occ(56,10,4) occ(65,10,7) occ(73,10,5) occ(78,10,3)
Optimization: -80
Answer: 32
occ(1,9,10) occ(1,1,3) occ(1,4,9) occ(1,8,5) occ(1,3,4) occ(1,8,2) occ(2,3,8) occ(3,5,5) coverage(81) occ(6,1,4) occ(40,1,9) occ(44,1,5) occ(49,1,10) occ(54,1,2) occ(59,1,7) occ(72,1,1) occ(4,2,6) occ(8,2,2) occ(42,2,7) occ(47,2,8) occ(52,2,4) occ(57,2,9) occ(58,2,1) occ(61,2,5) occ(74,2,3) occ(38,3,10) occ(46,3,6) occ(51,3,9) occ(56,3,3) occ(70,3,2) occ(76,3,1) occ(10,4,1) occ(45,4,7) occ(50,4,5) occ(55,4,8) occ(60,4,2) occ(63,4,4) occ(26,5,6) occ(30,5,8) occ(36,5,9) occ(48,5,7) occ(53,5,10) occ(62,5,4) occ(67,5,3) occ(68,5,1) occ(78,5,2) occ(12,6,2) occ(24,6,8) occ(34,6,7) occ(43,6,6) occ(65,6,5) occ(66,6,3) occ(69,6,1) occ(5,7,6) occ(14,7,4) occ(22,7,10) occ(28,7,7) occ(29,7,2) occ(32,7,9) occ(41,7,8) occ(64,7,5) occ(71,7,3) occ(80,7,1) occ(7,8,8) occ(11,8,10) occ(17,8,9) occ(25,8,3) occ(33,8,1) occ(39,8,6) occ(75,8,4) occ(13,9,8) occ(16,9,5) occ(20,9,9) occ(21,9,6) occ(27,9,1) occ(31,9,3) occ(37,9,4) occ(73,9,2) occ(79,9,7) occ(9,10,9) occ(15,10,10) occ(18,10,7) occ(19,10,8) occ(23,10,4) occ(35,10,2) occ(77,10,5)
Optimization: -81
Answer: 33
occ(1,9,10) occ(1,1,3) occ(1,4,9) occ(1,8,5) occ(1,3,4) occ(1,8,2) occ(2,3,8) occ(3,5,5) coverage(82) occ(6,1,4) occ(40,1,9) occ(44,1,5) occ(49,1,10) occ(54,1,2) occ(59,1,7) occ(72,1,1) occ(4,2,6) occ(8,2,2) occ(42,2,7) occ(47,2,8) occ(52,2,4) occ(57,2,9) occ(58,2,1) occ(61,2,5) occ(74,2,3) occ(38,3,10) occ(46,3,6) occ(51,3,9) occ(56,3,3) occ(70,3,2) occ(76,3,1) occ(10,4,1) occ(45,4,7) occ(50,4,5) occ(55,4,8) occ(60,4,2) occ(63,4,4) occ(26,5,6) occ(30,5,8) occ(36,5,9) occ(48,5,7) occ(53,5,10) occ(62,5,4) occ(67,5,3) occ(68,5,1) occ(78,5,2) occ(12,6,2) occ(24,6,8) occ(34,6,7) occ(43,6,6) occ(65,6,5) occ(66,6,3) occ(69,6,1) occ(5,7,6) occ(14,7,4) occ(22,7,10) occ(28,7,7) occ(29,7,2) occ(32,7,9) occ(41,7,8) occ(64,7,5) occ(71,7,3) occ(80,7,1) occ(7,8,8) occ(11,8,10) occ(17,8,7) occ(25,8,3) occ(33,8,1) occ(39,8,6) occ(75,8,4) occ(81,8,9) occ(13,9,8) occ(16,9,5) occ(20,9,9) occ(21,9,6) occ(27,9,1) occ(31,9,3) occ(37,9,4) occ(73,9,2) occ(79,9,7) occ(9,10,9) occ(15,10,6) occ(18,10,7) occ(19,10,8) occ(23,10,4) occ(35,10,2) occ(77,10,5)
Optimization: -82
Answer: 34
occ(1,9,10) occ(1,1,3) occ(1,4,9) occ(1,8,5) occ(1,3,4) occ(1,8,2) occ(2,3,8) occ(3,5,5) coverage(83) occ(6,1,4) occ(40,1,9) occ(44,1,5) occ(49,1,10) occ(54,1,2) occ(59,1,7) occ(72,1,1) occ(4,2,6) occ(8,2,2) occ(42,2,7) occ(47,2,8) occ(52,2,4) occ(57,2,9) occ(58,2,1) occ(61,2,5) occ(74,2,3) occ(38,3,10) occ(46,3,6) occ(51,3,9) occ(56,3,3) occ(70,3,2) occ(76,3,1) occ(10,4,1) occ(45,4,7) occ(50,4,5) occ(55,4,8) occ(60,4,2) occ(63,4,4) occ(82,4,3) occ(26,5,6) occ(30,5,8) occ(36,5,9) occ(48,5,7) occ(53,5,10) occ(62,5,4) occ(67,5,3) occ(68,5,1) occ(78,5,2) occ(12,6,2) occ(24,6,8) occ(34,6,7) occ(43,6,6) occ(65,6,5) occ(66,6,3) occ(69,6,1) occ(80,6,4) occ(5,7,6) occ(14,7,4) occ(22,7,10) occ(28,7,7) occ(29,7,2) occ(32,7,9) occ(41,7,8) occ(64,7,5) occ(71,7,3) occ(7,8,8) occ(11,8,10) occ(17,8,7) occ(25,8,3) occ(33,8,1) occ(39,8,6) occ(75,8,4) occ(81,8,9) occ(13,9,8) occ(16,9,5) occ(20,9,9) occ(21,9,6) occ(27,9,1) occ(31,9,3) occ(37,9,4) occ(73,9,2) occ(79,9,7) occ(9,10,9) occ(15,10,6) occ(18,10,7) occ(19,10,8) occ(23,10,4) occ(35,10,2) occ(77,10,5)
Optimization: -83
Answer: 35
occ(1,9,10) occ(1,1,3) occ(1,4,9) occ(1,8,5) occ(1,3,4) occ(1,8,2) occ(2,3,8) occ(3,5,5) coverage(86) occ(6,1,8) occ(10,1,6) occ(39,1,1) occ(57,1,2) occ(64,1,7) occ(65,1,4) occ(4,2,10) occ(41,2,3) occ(54,2,7) occ(59,2,4) occ(62,2,5) occ(63,2,2) occ(66,2,9) occ(67,2,6) occ(75,2,8) occ(8,3,7) occ(12,3,5) occ(37,3,2) occ(52,3,9) occ(55,3,1) occ(60,3,3) occ(73,3,6) occ(77,3,10) occ(14,4,7) occ(34,4,1) occ(35,4,4) occ(43,4,2) occ(56,4,6) occ(61,4,3) occ(68,4,10) occ(69,4,5) occ(79,4,8) occ(7,5,1) occ(32,5,3) occ(50,5,10) occ(53,5,2) occ(58,5,4) occ(71,5,7) occ(80,5,9) occ(81,5,6) occ(85,5,8) occ(5,6,3) occ(16,6,8) occ(23,6,6) occ(24,6,4) occ(33,6,5) occ(36,6,2) occ(45,6,1) occ(70,6,9) occ(82,6,7) occ(9,7,2) occ(22,7,6) occ(25,7,8) occ(30,7,4) occ(47,7,3) occ(48,7,9) occ(51,7,1) occ(78,7,10) occ(83,7,7) occ(84,7,5) occ(15,8,4) occ(18,8,9) occ(21,8,7) occ(26,8,3) occ(31,8,6) occ(38,8,1) occ(72,8,10) occ(76,8,8) occ(11,9,1) occ(17,9,6) occ(20,9,7) occ(27,9,9) occ(28,9,5) occ(42,9,4) occ(46,9,8) occ(49,9,2) occ(13,10,3) occ(19,10,8) occ(29,10,7) occ(40,10,2) occ(44,10,6) occ(74,10,9)
Optimization: -86
Answer: 36
occ(1,9,10) occ(1,1,3) occ(1,4,9) occ(1,8,5) occ(1,3,4) occ(1,8,2) occ(2,3,8) occ(3,5,5) coverage(88) occ(6,1,4) occ(7,1,5) occ(11,1,9) occ(22,1,2) occ(39,1,7) occ(71,1,1) occ(77,1,6) occ(81,1,10) occ(4,2,6) occ(8,2,2) occ(9,2,7) occ(26,2,1) occ(37,2,9) occ(41,2,5) occ(69,2,3) occ(75,2,4) occ(79,2,8) occ(5,3,6) occ(13,3,10) occ(20,3,1) occ(24,3,3) occ(44,3,5) occ(73,3,2) occ(83,3,9) occ(10,4,1) occ(14,4,5) occ(15,4,8) occ(28,4,2) occ(35,4,10) occ(42,4,7) occ(43,4,6) occ(46,4,3) occ(67,4,4) occ(12,5,3) occ(18,5,2) occ(33,5,8) occ(38,5,4) occ(48,5,1) occ(65,5,6) occ(84,5,7) occ(85,5,10) occ(16,6,4) occ(17,6,7) occ(30,6,1) occ(31,6,10) occ(36,6,2) occ(40,6,6) occ(45,6,5) occ(50,6,3) occ(63,6,8) occ(86,6,9) occ(29,7,8) occ(32,7,3) occ(47,7,7) occ(52,7,5) occ(60,7,1) occ(61,7,10) occ(66,7,2) occ(70,7,4) occ(82,7,6) occ(87,7,9) occ(19,8,6) occ(23,8,8) occ(27,8,10) occ(34,8,1) occ(49,8,9) occ(57,8,7) occ(62,8,3) occ(76,8,4) occ(53,9,8) occ(54,9,6) occ(58,9,2) occ(59,9,9) occ(64,9,1) occ(68,9,3) occ(72,9,5) occ(80,9,7) occ(21,10,7) occ(25,10,9) occ(51,10,10) occ(55,10,6) occ(56,10,4) occ(74,10,3) occ(78,10,5)
Optimization: -88
Answer: 37
occ(1,9,10) occ(1,1,3) occ(1,4,9) occ(1,8,5) occ(1,3,4) occ(1,8,2) occ(2,3,8) occ(3,5,5) coverage(89) occ(4,1,9) occ(15,1,1) occ(19,1,5) occ(30,1,8) occ(34,1,4) occ(37,1,6) occ(42,1,2) occ(67,1,7) occ(17,2,3) occ(21,2,7) occ(26,2,5) occ(32,2,6) occ(35,2,8) occ(36,2,2) occ(44,2,4) occ(65,2,9) occ(6,3,10) occ(13,3,2) occ(23,3,9) occ(28,3,7) occ(39,3,5) occ(40,3,1) occ(69,3,6) occ(88,3,3) occ(7,4,2) occ(8,4,8) occ(24,4,6) occ(33,4,7) occ(38,4,3) occ(46,4,5) occ(63,4,10) occ(71,4,4) occ(86,4,1) occ(10,5,6) occ(11,5,3) occ(25,5,10) occ(31,5,9) occ(41,5,4) occ(45,5,8) occ(48,5,7) occ(73,5,2) occ(5,6,3) occ(9,6,1) occ(12,6,4) occ(22,6,5) occ(29,6,7) occ(43,6,6) occ(47,6,10) occ(56,6,8) occ(61,6,9) occ(84,6,2) occ(14,7,2) occ(27,7,9) occ(50,7,8) occ(54,7,10) occ(58,7,6) occ(66,7,4) occ(75,7,1) occ(79,7,5) occ(87,7,3) occ(20,8,4) occ(49,8,9) occ(55,8,10) occ(59,8,8) occ(68,8,6) occ(74,8,7) occ(77,8,3) occ(82,8,1) occ(16,9,1) occ(52,9,9) occ(53,9,8) occ(60,9,7) occ(64,9,3) occ(72,9,5) occ(78,9,4) occ(81,9,6) occ(85,9,2) occ(18,10,3) occ(51,10,10) occ(57,10,9) occ(62,10,5) occ(70,10,7) occ(76,10,6) occ(80,10,2) occ(83,10,4)
Optimization: -89
Answer: 38
occ(1,9,10) occ(1,1,3) occ(1,4,9) occ(1,8,5) occ(1,3,4) occ(1,8,2) occ(2,3,8) occ(3,5,5) coverage(90) occ(11,1,1) occ(21,1,2) occ(41,1,4) occ(58,1,8) occ(64,1,7) occ(78,1,10) occ(84,1,9) occ(88,1,5) occ(7,2,4) occ(13,2,3) occ(25,2,1) occ(39,2,2) occ(56,2,6) occ(62,2,5) occ(66,2,9) occ(80,2,8) occ(86,2,7) occ(5,3,6) occ(9,3,2) occ(19,3,1) occ(23,3,3) occ(43,3,5) occ(60,3,7) occ(76,3,9) occ(82,3,10) occ(15,4,4) occ(27,4,2) occ(34,4,3) occ(37,4,1) occ(44,4,8) occ(45,4,7) occ(48,4,6) occ(54,4,5) occ(68,4,10) occ(4,5,7) occ(17,5,2) occ(35,5,3) occ(38,5,6) occ(50,5,4) occ(51,5,9) occ(70,5,8) occ(74,5,10) occ(87,5,1) occ(29,6,1) occ(32,6,2) occ(33,6,5) occ(36,6,4) occ(42,6,9) occ(46,6,7) occ(47,6,8) occ(52,6,6) occ(55,6,10) occ(85,6,3) occ(6,7,6) occ(30,7,4) occ(31,7,3) occ(40,7,7) occ(49,7,10) occ(53,7,8) occ(72,7,9) occ(75,7,5) occ(83,7,1) occ(89,7,2) occ(12,8,8) occ(18,8,7) occ(24,8,4) occ(57,8,9) occ(63,8,6) occ(69,8,1) occ(77,8,3) occ(8,9,7) occ(16,9,9) occ(22,9,6) occ(28,9,5) occ(61,9,8) occ(67,9,3) occ(73,9,4) occ(81,9,2) occ(10,10,9) occ(14,10,7) occ(20,10,8) occ(26,10,3) occ(59,10,10) occ(65,10,5) occ(71,10,2) occ(79,10,4)
Optimization: -90
Answer: 39
occ(1,9,10) occ(1,1,3) occ(1,4,9) occ(1,8,5) occ(1,3,4) occ(1,8,2) occ(2,3,8) occ(3,5,5) coverage(91) occ(6,1,8) occ(42,1,2) occ(50,1,10) occ(58,1,6) occ(62,1,4) occ(75,1,7) occ(80,1,9) occ(84,1,5) occ(88,1,1) occ(4,2,10) occ(8,2,6) occ(38,2,1) occ(44,2,4) occ(48,2,8) occ(64,2,2) occ(73,2,5) occ(77,2,9) occ(82,2,7) occ(86,2,3) occ(40,3,3) occ(46,3,6) occ(52,3,9) occ(56,3,7) occ(60,3,5) occ(78,3,10) occ(90,3,2) occ(10,4,5) occ(26,4,7) occ(36,4,2) occ(37,4,3) occ(66,4,1) occ(67,4,6) occ(71,4,4) occ(79,4,8) occ(9,5,2) occ(12,5,7) occ(30,5,4) occ(39,5,1) occ(54,5,8) occ(68,5,3) occ(76,5,9) occ(81,5,10) occ(89,5,6) occ(7,6,4) occ(14,6,9) occ(24,6,8) occ(28,6,6) occ(34,6,1) occ(35,6,2) occ(41,6,3) occ(65,6,7) occ(69,6,5) occ(5,7,6) occ(11,7,1) occ(22,7,10) occ(32,7,3) occ(45,7,2) occ(63,7,5) occ(70,7,4) occ(74,7,8) occ(83,7,9) occ(87,7,7) occ(16,8,10) occ(20,8,8) occ(21,8,9) occ(29,8,1) occ(33,8,3) occ(43,8,4) occ(57,8,7) occ(72,8,6) occ(13,9,2) occ(17,9,6) occ(23,9,7) occ(27,9,3) occ(47,9,1) occ(51,9,5) occ(55,9,9) occ(61,9,4) occ(85,9,8) occ(15,10,4) occ(18,10,9) occ(19,10,8) occ(25,10,5) occ(31,10,2) occ(49,10,3) occ(53,10,7) occ(59,10,6)
Optimization: -91
Answer: 40
occ(1,9,10) occ(1,1,3) occ(1,4,9) occ(1,8,5) occ(1,3,4) occ(1,8,2) occ(2,3,8) occ(3,5,5) coverage(92) occ(9,1,2) occ(27,1,1) occ(28,1,5) occ(32,1,7) occ(33,1,6) occ(41,1,8) occ(57,1,10) occ(90,1,4) occ(13,2,1) occ(26,2,7) occ(29,2,3) occ(34,2,5) occ(35,2,4) occ(39,2,6) occ(45,2,9) occ(55,2,8) occ(88,2,2) occ(7,3,1) occ(11,3,3) occ(25,3,2) occ(30,3,6) occ(31,3,5) occ(43,3,7) occ(53,3,10) occ(59,3,9) occ(5,4,3) occ(15,4,2) occ(24,4,6) occ(36,4,4) occ(37,4,5) occ(46,4,7) occ(47,4,10) occ(51,4,8) occ(86,4,1) occ(4,5,7) occ(19,5,3) occ(22,5,4) occ(23,5,1) occ(38,5,2) occ(42,5,6) occ(48,5,9) occ(61,5,10) occ(70,5,8) occ(17,6,1) occ(20,6,6) occ(40,6,4) occ(44,6,8) occ(49,6,9) occ(50,6,7) occ(54,6,3) occ(68,6,10) occ(74,6,5) occ(84,6,2) occ(6,7,6) occ(10,7,10) occ(18,7,4) occ(21,7,2) occ(52,7,5) occ(63,7,9) occ(66,7,8) occ(72,7,7) occ(76,7,3) occ(79,7,1) occ(8,8,8) occ(16,8,6) occ(56,8,4) occ(64,8,10) occ(69,8,9) occ(81,8,3) occ(82,8,1) occ(89,8,7) occ(12,9,9) occ(60,9,7) occ(65,9,8) occ(73,9,6) occ(77,9,2) occ(78,9,4) occ(83,9,1) occ(87,9,5) occ(14,10,7) occ(58,10,5) occ(62,10,9) occ(67,10,10) occ(71,10,8) occ(75,10,4) occ(80,10,2) occ(85,10,3) occ(91,10,6)
Optimization: -92
*** Info : (clingo): INTERRUPTED by signal!
SATISFIABLE

TIME LIMIT   : 1
Models       : 40+
  Optimum    : unknown
Optimization : -92
Calls        : 1
Time         : 300.000s (Solving: 298.53s 1st Model: 0.00s Unsat: 0.00s)
CPU Time     : 299.969s
